21838
0 0 1 0 1 1 1 0 0 0 0 0 0 0 0 1 0 1 0 0 1 0 0 0 0 0 1 0 0 0 
6 5 6 2 6 5 4 5 6 17 26 6 6 20 4 2 2 17 4 5 4 4 26 4 26 20 2 5 5 26 4 5 6 4 20 2 5 15 4 2 17 2 15 6 5 2 6 20 5 2 4 6 2 5 6 2 2 4 4 17 17 5 20 4 17 5 15 17 26 26 6 6 5 5 15 2 26 20 4 15 6 2 6 17 4 17 2 4 20 4 2 15 2 5 4 15 2 6 4 6 6 5 2 5 5 5 4 5 2 2 2 4 2 17 5 26 5 15 5 5 5 6 5 20 6 4 5 26 4 26 17 4 5 6 6 2 4 4 20 17 17 6 20 2 2 4 5 5 2 5 